nK = 889;
nT = 4;
nI = 7;
L = 29;
TT = 215;
np = 1;
nc = 3;
b = [67, 41, 38, 56, 45, 39, 35];
d = [119, 135, 149, 146, 137, 95, 144];
m = [2.3, 2, 1.7, 2.2, 1.6, 1.3, 2.2];
pt = [0.29, 0.23, 0.35, 0.33];
st = [15.37, 10.58, 17.5, 14.52];
arc = {<1, 0, 1, 1, 0, 0, 0, [1, 1, 1, 1]>, <2, 1, 2, 1, 0, 0, 0, [1, 1, 1, 1]>, <3, 2, 3, 1, 0, 0, 0, [1, 1, 1, 1]>, <4, 3, 4, 1, 0, 0, 0, [1, 1, 1, 1]>, <5, 4, 5, 1, 0, 0, 0, [1, 1, 1, 1]>, <6, 5, 6, 1, 0, 0, 0, [1, 1, 1, 1]>, <7, 6, 7, 1, 0, 0, 0, [1, 1, 1, 1]>, <8, 7, 8, 1, 0, 0, 0, [1, 1, 1, 1]>, <9, 8, 9, 1, 0, 0, 0, [1, 1, 1, 1]>, <10, 9, 10, 1, 0, 0, 0, [1, 1, 1, 1]>, <11, 10, 11, 1, 0, 0, 0, [1, 1, 1, 1]>, <12, 11, 12, 1, 0, 0, 0, [1, 1, 1, 1]>, <13, 12, 13, 1, 0, 0, 0, [1, 1, 1, 1]>, <14, 13, 14, 1, 0, 0, 0, [1, 1, 1, 1]>, <15, 14, 15, 1, 0, 0, 0, [1, 1, 1, 1]>, <16, 15, 16, 1, 0, 0, 0, [1, 1, 1, 1]>, <17, 16, 17, 1, 0, 0, 0, [1, 1, 1, 1]>, <18, 17, 18, 1, 0, 0, 0, [1, 1, 1, 1]>, <19, 18, 19, 1, 0, 0, 0, [1, 1, 1, 1]>, <20, 19, 20, 1, 0, 0, 0, [1, 1, 1, 1]>, <21, 20, 21, 1, 0, 0, 0, [1, 1, 1, 1]>, <22, 21, 22, 1, 0, 0, 0, [1, 1, 1, 1]>, <23, 22, 23, 1, 0, 0, 0, [1, 1, 1, 1]>, <24, 23, 24, 1, 0, 0, 0, [1, 1, 1, 1]>, <25, 24, 25, 1, 0, 0, 0, [1, 1, 1, 1]>, <26, 25, 26, 1, 0, 0, 0, [1, 1, 1, 1]>, <27, 26, 27, 1, 0, 0, 0, [1, 1, 1, 1]>, <28, 27, 28, 1, 0, 0, 0, [1, 1, 1, 1]>, <29, 28, 29, 1, 0, 0, 0, [1, 1, 1, 1]>, <30, 0, 17, 17, 1, 0, 1, [1, 1, 1, 0]>, <31, 1, 18, 17, 1, 0, 1, [1, 1, 1, 0]>, <32, 2, 19, 17, 1, 0, 1, [1, 1, 1, 0]>, <33, 3, 20, 17, 1, 0, 1, [1, 1, 1, 0]>, <34, 4, 21, 17, 1, 0, 1, [1, 1, 1, 0]>, <35, 5, 22, 17, 1, 0, 1, [1, 1, 1, 0]>, <36, 6, 23, 17, 1, 0, 1, [1, 1, 1, 0]>, <37, 7, 24, 17, 1, 0, 1, [1, 1, 1, 0]>, <38, 8, 25, 17, 1, 0, 1, [1, 1, 1, 0]>, <39, 9, 26, 17, 1, 0, 1, [1, 1, 1, 0]>, <40, 10, 27, 17, 1, 0, 1, [1, 1, 1, 0]>, <41, 11, 28, 17, 1, 0, 1, [1, 1, 1, 0]>, <42, 12, 29, 17, 1, 0, 1, [1, 1, 1, 0]>, <43, 0, 14, 14, 2, 0, 0, [1, 0, 1, 1]>, <44, 1, 15, 14, 2, 0, 0, [1, 0, 1, 1]>, <45, 2, 16, 14, 2, 0, 0, [1, 0, 1, 1]>, <46, 3, 17, 14, 2, 0, 0, [1, 0, 1, 1]>, <47, 4, 18, 14, 2, 0, 0, [1, 0, 1, 1]>, <48, 5, 19, 14, 2, 0, 0, [1, 0, 1, 1]>, <49, 6, 20, 14, 2, 0, 0, [1, 0, 1, 1]>, <50, 7, 21, 14, 2, 0, 0, [1, 0, 1, 1]>, <51, 8, 22, 14, 2, 0, 0, [1, 0, 1, 1]>, <52, 9, 23, 14, 2, 0, 0, [1, 0, 1, 1]>, <53, 10, 24, 14, 2, 0, 0, [1, 0, 1, 1]>, <54, 11, 25, 14, 2, 0, 0, [1, 0, 1, 1]>, <55, 12, 26, 14, 2, 0, 0, [1, 0, 1, 1]>, <56, 13, 27, 14, 2, 0, 0, [1, 0, 1, 1]>, <57, 14, 28, 14, 2, 0, 0, [1, 0, 1, 1]>, <58, 15, 29, 14, 2, 0, 0, [1, 0, 1, 1]>, <59, 0, 15, 15, 3, 0, 0, [1, 1, 0, 1]>, <60, 1, 16, 15, 3, 0, 0, [1, 1, 0, 1]>, <61, 2, 17, 15, 3, 0, 0, [1, 1, 0, 1]>, <62, 3, 18, 15, 3, 0, 0, [1, 1, 0, 1]>, <63, 4, 19, 15, 3, 0, 0, [1, 1, 0, 1]>, <64, 5, 20, 15, 3, 0, 0, [1, 1, 0, 1]>, <65, 6, 21, 15, 3, 0, 0, [1, 1, 0, 1]>, <66, 7, 22, 15, 3, 0, 0, [1, 1, 0, 1]>, <67, 8, 23, 15, 3, 0, 0, [1, 1, 0, 1]>, <68, 9, 24, 15, 3, 0, 0, [1, 1, 0, 1]>, <69, 10, 25, 15, 3, 0, 0, [1, 1, 0, 1]>, <70, 11, 26, 15, 3, 0, 0, [1, 1, 0, 1]>, <71, 12, 27, 15, 3, 0, 0, [1, 1, 0, 1]>, <72, 13, 28, 15, 3, 0, 0, [1, 1, 0, 1]>, <73, 14, 29, 15, 3, 0, 0, [1, 1, 0, 1]>, <74, 0, 16, 16, 4, 0, 0, [1, 1, 0, 1]>, <75, 1, 17, 16, 4, 0, 0, [1, 1, 0, 1]>, <76, 2, 18, 16, 4, 0, 0, [1, 1, 0, 1]>, <77, 3, 19, 16, 4, 0, 0, [1, 1, 0, 1]>, <78, 4, 20, 16, 4, 0, 0, [1, 1, 0, 1]>, <79, 5, 21, 16, 4, 0, 0, [1, 1, 0, 1]>, <80, 6, 22, 16, 4, 0, 0, [1, 1, 0, 1]>, <81, 7, 23, 16, 4, 0, 0, [1, 1, 0, 1]>, <82, 8, 24, 16, 4, 0, 0, [1, 1, 0, 1]>, <83, 9, 25, 16, 4, 0, 0, [1, 1, 0, 1]>, <84, 10, 26, 16, 4, 0, 0, [1, 1, 0, 1]>, <85, 11, 27, 16, 4, 0, 0, [1, 1, 0, 1]>, <86, 12, 28, 16, 4, 0, 0, [1, 1, 0, 1]>, <87, 13, 29, 16, 4, 0, 0, [1, 1, 0, 1]>, <88, 0, 13, 13, 5, 0, 0, [1, 0, 1, 1]>, <89, 1, 14, 13, 5, 0, 0, [1, 0, 1, 1]>, <90, 2, 15, 13, 5, 0, 0, [1, 0, 1, 1]>, <91, 3, 16, 13, 5, 0, 0, [1, 0, 1, 1]>, <92, 4, 17, 13, 5, 0, 0, [1, 0, 1, 1]>, <93, 5, 18, 13, 5, 0, 0, [1, 0, 1, 1]>, <94, 7, 20, 13, 5, 0, 0, [1, 0, 1, 1]>, <95, 8, 21, 13, 5, 0, 0, [1, 0, 1, 1]>, <96, 9, 22, 13, 5, 0, 0, [1, 0, 1, 1]>, <97, 10, 23, 13, 5, 0, 0, [1, 0, 1, 1]>, <98, 11, 24, 13, 5, 0, 0, [1, 0, 1, 1]>, <99, 12, 25, 13, 5, 0, 0, [1, 0, 1, 1]>, <100, 13, 26, 13, 5, 0, 0, [1, 0, 1, 1]>, <101, 14, 27, 13, 5, 0, 0, [1, 0, 1, 1]>, <102, 15, 28, 13, 5, 0, 0, [1, 0, 1, 1]>, <103, 16, 29, 13, 5, 0, 0, [1, 0, 1, 1]>, <104, 0, 18, 18, 6, 0, 1, [1, 1, 1, 0]>, <105, 1, 19, 18, 6, 0, 1, [1, 1, 1, 0]>, <106, 2, 20, 18, 6, 0, 1, [1, 1, 1, 0]>, <107, 3, 21, 18, 6, 0, 1, [1, 1, 1, 0]>, <108, 4, 22, 18, 6, 0, 1, [1, 1, 1, 0]>, <109, 5, 23, 18, 6, 0, 1, [1, 1, 1, 0]>, <110, 6, 24, 18, 6, 0, 1, [1, 1, 1, 0]>, <111, 7, 25, 18, 6, 0, 1, [1, 1, 1, 0]>, <112, 8, 26, 18, 6, 0, 1, [1, 1, 1, 0]>, <113, 9, 27, 18, 6, 0, 1, [1, 1, 1, 0]>, <114, 10, 28, 18, 6, 0, 1, [1, 1, 1, 0]>, <115, 11, 29, 18, 6, 0, 1, [1, 1, 1, 0]>, <116, 0, 15, 15, 7, 0, 0, [0, 1, 1, 1]>, <117, 1, 16, 15, 7, 0, 0, [0, 1, 1, 1]>, <118, 2, 17, 15, 7, 0, 0, [0, 1, 1, 1]>, <119, 3, 18, 15, 7, 0, 0, [0, 1, 1, 1]>, <120, 4, 19, 15, 7, 0, 0, [0, 1, 1, 1]>, <121, 5, 20, 15, 7, 0, 0, [0, 1, 1, 1]>, <122, 6, 21, 15, 7, 0, 0, [0, 1, 1, 1]>, <123, 7, 22, 15, 7, 0, 0, [0, 1, 1, 1]>, <124, 8, 23, 15, 7, 0, 0, [0, 1, 1, 1]>, <125, 9, 24, 15, 7, 0, 0, [0, 1, 1, 1]>, <126, 10, 25, 15, 7, 0, 0, [0, 1, 1, 1]>, <127, 11, 26, 15, 7, 0, 0, [0, 1, 1, 1]>, <128, 12, 27, 15, 7, 0, 0, [0, 1, 1, 1]>, <129, 13, 28, 15, 7, 0, 0, [0, 1, 1, 1]>, <130, 14, 29, 15, 7, 0, 0, [0, 1, 1, 1]>};
